9641
0 1 0 0 0 1 0 1 0 1 0 0 1 0 0 1 0 0 1 0 
5 5 5 5 5 5 5 5 7 7 7 7 7 7 7 7 7 12 15 12 12 18 1 12 12 9 9 9 9 9 18 9 9 18 18 18 18 18 18 18 18 18 18 18 5 5 7 12 12 15 15 1 7 18 5 15 7 1 1 7 18 9 15 7 7 15 9 18 18 18 18 18 7 1 1 15 12 7 5 15 18 7 15 15 15 7 1 7 15 1 15 15 9 18 15 18 7 7 7 5 
